;test regex df['pin1'] = df['ADDRESS'].str.extract(r'(\d{3}\s\d{3})').str.replace(" ","")
(declare-const X String)
(assert (str.in_re X (re.++ (str.to_re "d") (re.++ (str.to_re "f") (re.++ (re.union (str.to_re "\u{27}") (re.union (str.to_re "p") (re.union (str.to_re "i") (re.union (str.to_re "n") (re.union (str.to_re "1") (str.to_re "\u{27}")))))) (re.++ (str.to_re " ") (re.++ (str.to_re "=") (re.++ (str.to_re " ") (re.++ (str.to_re "d") (re.++ (str.to_re "f") (re.++ (re.union (str.to_re "\u{27}") (re.union (str.to_re "A") (re.union (str.to_re "D") (re.union (str.to_re "D") (re.union (str.to_re "R") (re.union (str.to_re "E") (re.union (str.to_re "S") (re.union (str.to_re "S") (str.to_re "\u{27}"))))))))) (re.++ (re.diff re.allchar (str.to_re "\n")) (re.++ (str.to_re "s") (re.++ (str.to_re "t") (re.++ (str.to_re "r") (re.++ (re.diff re.allchar (str.to_re "\n")) (re.++ (str.to_re "e") (re.++ (str.to_re "x") (re.++ (str.to_re "t") (re.++ (str.to_re "r") (re.++ (str.to_re "a") (re.++ (str.to_re "c") (re.++ (str.to_re "t") (re.++ (re.++ (str.to_re "r") (re.++ (str.to_re "\u{27}") (re.++ (re.++ ((_ re.loop 3 3) (re.range "0" "9")) (re.++ (re.union (str.to_re " ") (re.union (str.to_re "\u{0b}") (re.union (str.to_re "\u{0a}") (re.union (str.to_re "\u{0d}") (re.union (str.to_re "\u{09}") (str.to_re "\u{0c}")))))) ((_ re.loop 3 3) (re.range "0" "9")))) (str.to_re "\u{27}")))) (re.++ (re.diff re.allchar (str.to_re "\n")) (re.++ (str.to_re "s") (re.++ (str.to_re "t") (re.++ (str.to_re "r") (re.++ (re.diff re.allchar (str.to_re "\n")) (re.++ (str.to_re "r") (re.++ (str.to_re "e") (re.++ (str.to_re "p") (re.++ (str.to_re "l") (re.++ (str.to_re "a") (re.++ (str.to_re "c") (re.++ (str.to_re "e") (re.++ (re.++ (str.to_re "\u{22}") (re.++ (str.to_re " ") (str.to_re "\u{22}"))) (re.++ (str.to_re ",") (re.++ (str.to_re "\u{22}") (str.to_re "\u{22}"))))))))))))))))))))))))))))))))))))))))
; sanitize danger characters:  < > ' " &
(assert (not (str.in_re X (re.++ re.all (re.union (str.to_re "\u{3c}") (str.to_re "\u{3e}") (str.to_re "\u{27}") (str.to_re "\u{22}") (str.to_re "\u{26}")) re.all))))
(assert (< 20 (str.len X)))
(check-sat)
(get-model)